c This is UnifRandomKSATGenerator
c uniform random 3-SAT generated instance with: 
c clause length: 3 
c number variables: 20 
c number clauses: 85 
c clause to variable ratio: 4.27 
c random number generator name: SHA1PRNG 
c random number generator provider: SUN 
c random number generator seed: 165890859978501396 
p cnf 20 85
-9 -11 7 0
4 13 5 0
20 -14 -7 0
-20 13 6 0
-18 -14 -7 0
-12 14 15 0
-11 -6 -8 0
1 -15 -8 0
2 -6 7 0
2 -12 -13 0
-10 -6 5 0
-17 -4 20 0
12 15 7 0
-9 18 -4 0
16 -18 -20 0
-2 20 -8 0
17 4 6 0
16 -20 7 0
1 -15 7 0
9 -11 12 0
18 11 -14 0
-17 -4 -20 0
1 -3 2 0
1 -5 -6 0
10 -3 -13 0
-2 3 6 0
16 -18 -5 0
12 -5 -14 0
-1 12 -8 0
10 -11 -7 0
11 12 6 0
1 -18 -4 0
2 -6 -15 0
18 10 -15 0
-3 -4 -6 0
-1 -12 -8 0
-2 -12 -14 0
-1 -6 -7 0
-4 11 -14 0
18 -3 10 0
-2 18 -5 0
-19 -4 -13 0
16 -5 15 0
-19 3 -13 0
16 13 -6 0
18 -5 15 0
-1 3 -5 0
-3 -6 7 0
13 6 14 0
9 11 12 0
10 13 15 0
17 1 3 0
-3 -6 -16 0
17 10 -16 0
-17 -5 -16 0
10 -12 19 0
-20 11 -14 0
8 18 20 0
19 12 5 0
18 -4 -7 0
-13 -6 -16 0
2 -13 -16 0
17 -10 7 0
19 3 -16 0
-1 -10 11 0
-1 -4 -20 0
-17 2 4 0
-18 -5 -8 0
12 15 -16 0
-17 1 -6 0
-19 18 6 0
-11 10 6 0
-20 -12 4 0
-2 -18 -19 0
-1 18 19 0
-1 2 5 0
8 9 2 0
8 10 2 0
16 -20 -12 0
-10 -19 18 0
-9 -15 -8 0
-18 1 6 0
-11 -12 -6 0
-9 18 11 0
-2 17 19 0
